c numero: 82
c nombre: n-60-d-0.5
c densidad: 0.5
p edges 60 921
e 1 3
e 1 4
e 1 5
e 1 6
e 1 8
e 1 9
e 1 10
e 1 11
e 1 13
e 1 15
e 1 17
e 1 18
e 1 19
e 1 21
e 1 23
e 1 24
e 1 25
e 1 26
e 1 28
e 1 30
e 1 31
e 1 34
e 1 36
e 1 39
e 1 44
e 1 45
e 1 48
e 1 49
e 1 50
e 1 52
e 1 54
e 1 55
e 1 56
e 1 57
e 1 59
e 1 60
e 2 4
e 2 8
e 2 9
e 2 10
e 2 11
e 2 14
e 2 15
e 2 17
e 2 18
e 2 19
e 2 20
e 2 22
e 2 23
e 2 25
e 2 29
e 2 30
e 2 31
e 2 32
e 2 33
e 2 34
e 2 35
e 2 37
e 2 38
e 2 39
e 2 40
e 2 43
e 2 44
e 2 45
e 2 46
e 2 48
e 2 50
e 2 52
e 2 54
e 2 56
e 2 57
e 2 60
e 3 4
e 3 6
e 3 8
e 3 11
e 3 13
e 3 15
e 3 22
e 3 23
e 3 28
e 3 29
e 3 31
e 3 32
e 3 33
e 3 34
e 3 36
e 3 37
e 3 38
e 3 39
e 3 42
e 3 43
e 3 48
e 3 49
e 3 50
e 3 51
e 3 52
e 3 54
e 3 55
e 3 60
e 4 5
e 4 8
e 4 10
e 4 11
e 4 13
e 4 16
e 4 18
e 4 22
e 4 23
e 4 24
e 4 26
e 4 27
e 4 28
e 4 30
e 4 32
e 4 36
e 4 37
e 4 40
e 4 41
e 4 42
e 4 43
e 4 49
e 4 50
e 4 51
e 4 54
e 4 55
e 4 56
e 4 57
e 4 58
e 5 8
e 5 10
e 5 11
e 5 12
e 5 13
e 5 16
e 5 20
e 5 21
e 5 22
e 5 23
e 5 25
e 5 27
e 5 28
e 5 29
e 5 30
e 5 31
e 5 35
e 5 38
e 5 40
e 5 41
e 5 42
e 5 43
e 5 46
e 5 50
e 5 51
e 5 52
e 5 54
e 5 55
e 5 56
e 5 57
e 5 58
e 5 59
e 5 60
e 6 9
e 6 10
e 6 14
e 6 20
e 6 21
e 6 23
e 6 24
e 6 26
e 6 29
e 6 30
e 6 31
e 6 34
e 6 42
e 6 43
e 6 45
e 6 53
e 6 54
e 6 57
e 6 58
e 7 9
e 7 10
e 7 11
e 7 13
e 7 14
e 7 15
e 7 18
e 7 21
e 7 22
e 7 23
e 7 24
e 7 25
e 7 26
e 7 29
e 7 32
e 7 33
e 7 38
e 7 43
e 7 45
e 7 47
e 7 52
e 7 53
e 7 56
e 7 59
e 8 9
e 8 11
e 8 15
e 8 16
e 8 17
e 8 19
e 8 22
e 8 23
e 8 26
e 8 29
e 8 30
e 8 33
e 8 34
e 8 35
e 8 36
e 8 38
e 8 39
e 8 40
e 8 41
e 8 42
e 8 47
e 8 48
e 8 50
e 8 53
e 8 55
e 8 56
e 8 57
e 8 58
e 8 59
e 9 12
e 9 14
e 9 15
e 9 16
e 9 17
e 9 18
e 9 19
e 9 20
e 9 21
e 9 22
e 9 24
e 9 25
e 9 27
e 9 28
e 9 30
e 9 31
e 9 32
e 9 36
e 9 37
e 9 38
e 9 39
e 9 42
e 9 46
e 9 51
e 9 53
e 9 54
e 9 55
e 9 59
e 10 11
e 10 12
e 10 13
e 10 14
e 10 16
e 10 17
e 10 19
e 10 24
e 10 25
e 10 29
e 10 30
e 10 32
e 10 33
e 10 35
e 10 36
e 10 37
e 10 38
e 10 40
e 10 41
e 10 42
e 10 44
e 10 45
e 10 46
e 10 47
e 10 48
e 10 49
e 10 50
e 10 51
e 10 53
e 10 54
e 10 55
e 10 59
e 10 60
e 11 12
e 11 14
e 11 15
e 11 19
e 11 20
e 11 21
e 11 23
e 11 24
e 11 25
e 11 27
e 11 32
e 11 33
e 11 36
e 11 37
e 11 38
e 11 39
e 11 40
e 11 42
e 11 43
e 11 45
e 11 46
e 11 47
e 11 48
e 11 50
e 11 51
e 11 52
e 11 53
e 11 56
e 11 57
e 11 58
e 11 60
e 12 13
e 12 16
e 12 17
e 12 18
e 12 20
e 12 24
e 12 28
e 12 31
e 12 33
e 12 38
e 12 40
e 12 41
e 12 43
e 12 45
e 12 46
e 12 50
e 12 51
e 12 52
e 12 56
e 12 57
e 12 58
e 13 14
e 13 15
e 13 18
e 13 19
e 13 20
e 13 25
e 13 26
e 13 27
e 13 30
e 13 31
e 13 32
e 13 33
e 13 35
e 13 36
e 13 37
e 13 42
e 13 45
e 13 47
e 13 48
e 13 50
e 13 51
e 13 52
e 13 53
e 13 54
e 13 55
e 13 56
e 13 58
e 13 59
e 13 60
e 14 16
e 14 17
e 14 19
e 14 20
e 14 21
e 14 22
e 14 24
e 14 25
e 14 27
e 14 29
e 14 32
e 14 34
e 14 36
e 14 39
e 14 41
e 14 43
e 14 44
e 14 45
e 14 46
e 14 48
e 14 49
e 14 52
e 14 53
e 14 57
e 15 17
e 15 20
e 15 23
e 15 27
e 15 29
e 15 30
e 15 32
e 15 33
e 15 34
e 15 35
e 15 36
e 15 41
e 15 42
e 15 44
e 15 45
e 15 46
e 15 48
e 15 49
e 15 50
e 15 52
e 15 53
e 15 55
e 15 56
e 15 58
e 16 19
e 16 21
e 16 22
e 16 23
e 16 24
e 16 28
e 16 29
e 16 31
e 16 32
e 16 33
e 16 34
e 16 35
e 16 38
e 16 43
e 16 47
e 16 50
e 16 51
e 16 52
e 16 55
e 16 57
e 16 58
e 16 60
e 17 19
e 17 23
e 17 25
e 17 26
e 17 27
e 17 28
e 17 29
e 17 30
e 17 31
e 17 33
e 17 34
e 17 37
e 17 38
e 17 39
e 17 40
e 17 43
e 17 44
e 17 45
e 17 47
e 17 49
e 17 50
e 17 51
e 17 52
e 17 54
e 17 56
e 17 58
e 18 21
e 18 23
e 18 24
e 18 26
e 18 27
e 18 29
e 18 33
e 18 34
e 18 35
e 18 36
e 18 39
e 18 40
e 18 41
e 18 42
e 18 43
e 18 45
e 18 47
e 18 55
e 18 56
e 18 57
e 18 58
e 19 20
e 19 23
e 19 25
e 19 26
e 19 33
e 19 35
e 19 36
e 19 38
e 19 41
e 19 43
e 19 44
e 19 46
e 19 47
e 19 49
e 19 51
e 19 52
e 19 54
e 19 59
e 20 21
e 20 22
e 20 29
e 20 33
e 20 36
e 20 37
e 20 39
e 20 40
e 20 42
e 20 43
e 20 44
e 20 46
e 20 47
e 20 48
e 20 49
e 20 50
e 20 52
e 20 53
e 20 54
e 20 55
e 20 56
e 20 57
e 20 59
e 21 24
e 21 25
e 21 26
e 21 28
e 21 29
e 21 31
e 21 35
e 21 36
e 21 37
e 21 39
e 21 44
e 21 45
e 21 46
e 21 47
e 21 48
e 21 50
e 21 52
e 21 54
e 21 59
e 21 60
e 22 23
e 22 26
e 22 27
e 22 28
e 22 29
e 22 34
e 22 35
e 22 37
e 22 38
e 22 44
e 22 45
e 22 49
e 22 50
e 22 51
e 22 53
e 22 55
e 22 56
e 22 60
e 23 24
e 23 25
e 23 26
e 23 27
e 23 29
e 23 31
e 23 36
e 23 37
e 23 39
e 23 40
e 23 41
e 23 42
e 23 43
e 23 46
e 23 48
e 23 49
e 23 50
e 23 51
e 23 55
e 23 56
e 23 60
e 24 26
e 24 27
e 24 28
e 24 32
e 24 33
e 24 34
e 24 35
e 24 37
e 24 39
e 24 42
e 24 43
e 24 44
e 24 46
e 24 48
e 24 49
e 24 50
e 24 52
e 24 53
e 24 60
e 25 26
e 25 28
e 25 33
e 25 34
e 25 36
e 25 38
e 25 42
e 25 44
e 25 45
e 25 46
e 25 48
e 25 49
e 25 50
e 25 51
e 25 52
e 25 53
e 25 55
e 25 56
e 25 57
e 25 60
e 26 28
e 26 30
e 26 36
e 26 39
e 26 45
e 26 46
e 26 47
e 26 48
e 26 49
e 26 50
e 26 52
e 26 53
e 26 54
e 26 55
e 26 56
e 26 57
e 26 59
e 26 60
e 27 29
e 27 30
e 27 33
e 27 35
e 27 37
e 27 42
e 27 45
e 27 46
e 27 47
e 27 48
e 27 49
e 27 50
e 27 52
e 27 56
e 27 57
e 27 59
e 27 60
e 28 31
e 28 32
e 28 34
e 28 37
e 28 38
e 28 41
e 28 49
e 28 51
e 28 53
e 28 55
e 29 30
e 29 33
e 29 34
e 29 39
e 29 40
e 29 41
e 29 42
e 29 43
e 29 46
e 29 50
e 29 53
e 29 57
e 29 58
e 29 60
e 30 33
e 30 35
e 30 39
e 30 40
e 30 41
e 30 42
e 30 43
e 30 44
e 30 49
e 30 50
e 30 52
e 31 32
e 31 35
e 31 39
e 31 42
e 31 44
e 31 47
e 31 48
e 31 53
e 31 56
e 31 57
e 31 58
e 31 59
e 31 60
e 32 33
e 32 34
e 32 39
e 32 40
e 32 41
e 32 43
e 32 44
e 32 45
e 32 51
e 32 52
e 32 56
e 32 58
e 32 60
e 33 36
e 33 39
e 33 40
e 33 44
e 33 45
e 33 47
e 33 51
e 33 52
e 33 53
e 33 54
e 33 55
e 33 57
e 33 58
e 33 60
e 34 41
e 34 42
e 34 44
e 34 46
e 34 47
e 34 50
e 34 51
e 34 53
e 34 56
e 34 57
e 34 58
e 34 60
e 35 39
e 35 41
e 35 42
e 35 44
e 35 48
e 35 49
e 35 50
e 35 54
e 35 55
e 35 58
e 35 60
e 36 38
e 36 39
e 36 44
e 36 45
e 36 46
e 36 47
e 36 49
e 36 50
e 36 51
e 36 52
e 36 55
e 36 56
e 36 57
e 36 58
e 37 39
e 37 41
e 37 42
e 37 45
e 37 47
e 37 48
e 37 50
e 37 52
e 37 55
e 37 56
e 37 57
e 37 59
e 37 60
e 38 40
e 38 43
e 38 44
e 38 45
e 38 46
e 38 50
e 38 52
e 38 54
e 38 56
e 38 57
e 38 59
e 38 60
e 39 41
e 39 43
e 39 44
e 39 45
e 39 49
e 39 50
e 39 51
e 39 54
e 39 55
e 39 57
e 39 58
e 39 59
e 39 60
e 40 41
e 40 43
e 40 44
e 40 47
e 40 48
e 40 49
e 40 52
e 40 53
e 40 58
e 40 59
e 41 42
e 41 46
e 41 47
e 41 49
e 41 50
e 41 51
e 41 53
e 41 55
e 41 59
e 42 43
e 42 46
e 42 47
e 42 48
e 42 52
e 42 57
e 43 44
e 43 45
e 43 47
e 43 49
e 43 50
e 43 51
e 43 56
e 43 57
e 43 58
e 44 45
e 44 46
e 44 48
e 44 49
e 44 51
e 44 53
e 44 55
e 44 56
e 44 57
e 44 58
e 44 59
e 44 60
e 45 48
e 45 49
e 45 51
e 45 54
e 45 56
e 45 57
e 45 59
e 46 47
e 46 48
e 46 49
e 46 52
e 46 54
e 46 56
e 47 48
e 47 52
e 47 55
e 47 58
e 47 59
e 48 50
e 48 54
e 48 55
e 48 56
e 48 58
e 48 59
e 49 51
e 49 58
e 50 51
e 50 53
e 50 54
e 50 55
e 50 57
e 50 59
e 51 53
e 51 56
e 51 57
e 51 58
e 51 59
e 51 60
e 52 53
e 52 54
e 52 55
e 52 57
e 52 58
e 52 60
e 53 54
e 53 57
e 53 58
e 53 60
e 54 55
e 54 56
e 54 60
e 55 58
e 55 59
e 55 60
e 56 58
e 56 59
e 56 60
e 58 59
